p cnf 837 2529
2 3 51 0
-2 3 -51 0
2 -3 -51 0
-2 -3 51 0
-4 7 52 0
4 7 -52 0
-4 -7 -52 0
4 -7 52 0
11 -13 53 0
-11 -13 -53 0
11 13 -53 0
-11 13 53 0
-15 -17 54 0
15 -17 -54 0
-15 17 -54 0
15 17 54 0
20 -21 55 0
-20 -21 -55 0
20 21 -55 0
-20 21 55 0
-22 24 56 0
22 24 -56 0
-22 -24 -56 0
22 -24 56 0
-25 26 57 0
25 26 -57 0
-25 -26 -57 0
25 -26 57 0
29 -30 58 0
-29 -30 -58 0
29 30 -58 0
-29 30 58 0
34 -39 59 0
-34 -39 -59 0
34 39 -59 0
-34 39 59 0
40 -44 60 0
-40 -44 -60 0
40 44 -60 0
-40 44 60 0
50 -51 61 0
-50 -51 -61 0
50 51 -61 0
-50 51 61 0
52 -53 62 0
-52 -53 -62 0
52 53 -62 0
-52 53 62 0
54 -55 63 0
-54 -55 -63 0
54 55 -63 0
-54 55 63 0
56 -57 64 0
-56 -57 -64 0
56 57 -64 0
-56 57 64 0
58 -59 65 0
-58 -59 -65 0
58 59 -65 0
-58 59 65 0
60 -61 66 0
-60 -61 -66 0
60 61 -66 0
-60 61 66 0
62 -63 67 0
-62 -63 -67 0
62 63 -67 0
-62 63 67 0
64 -65 68 0
-64 -65 -68 0
64 65 -68 0
-64 65 68 0
-66 -67 68 0
66 -67 -68 0
-66 67 -68 0
66 67 68 0
1 2 69 0
-1 2 -69 0
1 -2 -69 0
-1 -2 69 0
-4 6 70 0
4 6 -70 0
-4 -6 -70 0
4 -6 70 0
-7 -9 71 0
7 -9 -71 0
-7 9 -71 0
7 9 71 0
10 13 72 0
-10 13 -72 0
10 -13 -72 0
-10 -13 72 0
-15 -16 73 0
15 -16 -73 0
-15 16 -73 0
15 16 73 0
-17 -18 74 0
17 -18 -74 0
-17 18 -74 0
17 18 74 0
-19 20 75 0
19 20 -75 0
-19 -20 -75 0
19 -20 75 0
26 29 76 0
-26 29 -76 0
26 -29 -76 0
-26 -29 76 0
-30 31 77 0
30 31 -77 0
-30 -31 -77 0
30 -31 77 0
32 -37 78 0
-32 -37 -78 0
32 37 -78 0
-32 37 78 0
-38 39 79 0
38 39 -79 0
-38 -39 -79 0
38 -39 79 0
-40 41 80 0
40 41 -80 0
-40 -41 -80 0
40 -41 80 0
-42 -46 81 0
42 -46 -81 0
-42 46 -81 0
42 46 81 0
48 -50 82 0
-48 -50 -82 0
48 50 -82 0
-48 50 82 0
69 -70 83 0
-69 -70 -83 0
69 70 -83 0
-69 70 83 0
71 -72 84 0
-71 -72 -84 0
71 72 -84 0
-71 72 84 0
73 -74 85 0
-73 -74 -85 0
73 74 -85 0
-73 74 85 0
75 -76 86 0
-75 -76 -86 0
75 76 -86 0
-75 76 86 0
77 -78 87 0
-77 -78 -87 0
77 78 -87 0
-77 78 87 0
79 -80 88 0
-79 -80 -88 0
79 80 -88 0
-79 80 88 0
81 -82 89 0
-81 -82 -89 0
81 82 -89 0
-81 82 89 0
83 -84 90 0
-83 -84 -90 0
83 84 -90 0
-83 84 90 0
85 -86 91 0
-85 -86 -91 0
85 86 -91 0
-85 86 91 0
87 -88 92 0
-87 -88 -92 0
87 88 -92 0
-87 88 92 0
89 -90 93 0
-89 -90 -93 0
89 90 -93 0
-89 90 93 0
91 -92 94 0
-91 -92 -94 0
91 92 -94 0
-91 92 94 0
93 94 0
-93 -94 0
2 3 95 0
-2 3 -95 0
2 -3 -95 0
-2 -3 95 0
-4 -8 96 0
4 -8 -96 0
-4 8 -96 0
4 8 96 0
-10 -11 97 0
10 -11 -97 0
-10 11 -97 0
10 11 97 0
-13 16 98 0
13 16 -98 0
-13 -16 -98 0
13 -16 98 0
17 -18 99 0
-17 -18 -99 0
17 18 -99 0
-17 18 99 0
-21 -22 100 0
21 -22 -100 0
-21 22 -100 0
21 22 100 0
26 27 101 0
-26 27 -101 0
26 -27 -101 0
-26 -27 101 0
-30 -31 102 0
30 -31 -102 0
-30 31 -102 0
30 31 102 0
-32 33 103 0
32 33 -103 0
-32 -33 -103 0
32 -33 103 0
-34 40 104 0
34 40 -104 0
-34 -40 -104 0
34 -40 104 0
-41 -43 105 0
41 -43 -105 0
-41 43 -105 0
41 43 105 0
-44 46 106 0
44 46 -106 0
-44 -46 -106 0
44 -46 106 0
94 -95 107 0
-94 -95 -107 0
94 95 -107 0
-94 95 107 0
96 -97 108 0
-96 -97 -108 0
96 97 -108 0
-96 97 108 0
98 -99 109 0
-98 -99 -109 0
98 99 -109 0
-98 99 109 0
100 -101 110 0
-100 -101 -110 0
100 101 -110 0
-100 101 110 0
102 -103 111 0
-102 -103 -111 0
102 103 -111 0
-102 103 111 0
104 -105 112 0
-104 -105 -112 0
104 105 -112 0
-104 105 112 0
106 -107 113 0
-106 -107 -113 0
106 107 -113 0
-106 107 113 0
108 -109 114 0
-108 -109 -114 0
108 109 -114 0
-108 109 114 0
110 -111 115 0
-110 -111 -115 0
110 111 -115 0
-110 111 115 0
112 -113 116 0
-112 -113 -116 0
112 113 -116 0
-112 113 116 0
114 -115 117 0
-114 -115 -117 0
114 115 -117 0
-114 115 117 0
116 117 0
-116 -117 0
-1 -2 118 0
1 -2 -118 0
-1 2 -118 0
1 2 118 0
-3 -6 119 0
3 -6 -119 0
-3 6 -119 0
3 6 119 0
-8 10 120 0
8 10 -120 0
-8 -10 -120 0
8 -10 120 0
12 13 121 0
-12 13 -121 0
12 -13 -121 0
-12 -13 121 0
16 -19 122 0
-16 -19 -122 0
16 19 -122 0
-16 19 122 0
20 -21 123 0
-20 -21 -123 0
20 21 -123 0
-20 21 123 0
23 -24 124 0
-23 -24 -124 0
23 24 -124 0
-23 24 124 0
25 -27 125 0
-25 -27 -125 0
25 27 -125 0
-25 27 125 0
-29 -30 126 0
29 -30 -126 0
-29 30 -126 0
29 30 126 0
31 -33 127 0
-31 -33 -127 0
31 33 -127 0
-31 33 127 0
34 -35 128 0
-34 -35 -128 0
34 35 -128 0
-34 35 128 0
36 37 129 0
-36 37 -129 0
36 -37 -129 0
-36 -37 129 0
40 43 130 0
-40 43 -130 0
40 -43 -130 0
-40 -43 130 0
-48 49 131 0
48 49 -131 0
-48 -49 -131 0
48 -49 131 0
118 -119 132 0
-118 -119 -132 0
118 119 -132 0
-118 119 132 0
120 -121 133 0
-120 -121 -133 0
120 121 -133 0
-120 121 133 0
122 -123 134 0
-122 -123 -134 0
122 123 -134 0
-122 123 134 0
124 -125 135 0
-124 -125 -135 0
124 125 -135 0
-124 125 135 0
126 -127 136 0
-126 -127 -136 0
126 127 -136 0
-126 127 136 0
128 -129 137 0
-128 -129 -137 0
128 129 -137 0
-128 129 137 0
130 -131 138 0
-130 -131 -138 0
130 131 -138 0
-130 131 138 0
132 -133 139 0
-132 -133 -139 0
132 133 -139 0
-132 133 139 0
134 -135 140 0
-134 -135 -140 0
134 135 -140 0
-134 135 140 0
136 -137 141 0
-136 -137 -141 0
136 137 -141 0
-136 137 141 0
138 -139 142 0
-138 -139 -142 0
138 139 -142 0
-138 139 142 0
140 -141 143 0
-140 -141 -143 0
140 141 -143 0
-140 141 143 0
142 143 0
-142 -143 0
1 5 144 0
-1 5 -144 0
1 -5 -144 0
-1 -5 144 0
-7 8 145 0
7 8 -145 0
-7 -8 -145 0
7 -8 145 0
-9 -10 146 0
9 -10 -146 0
-9 10 -146 0
9 10 146 0
12 -13 147 0
-12 -13 -147 0
12 13 -147 0
-12 13 147 0
-16 -19 148 0
16 -19 -148 0
-16 19 -148 0
16 19 148 0
22 23 149 0
-22 23 -149 0
22 -23 -149 0
-22 -23 149 0
24 -25 150 0
-24 -25 -150 0
24 25 -150 0
-24 25 150 0
-26 27 151 0
26 27 -151 0
-26 -27 -151 0
26 -27 151 0
31 35 152 0
-31 35 -152 0
31 -35 -152 0
-31 -35 152 0
37 39 153 0
-37 39 -153 0
37 -39 -153 0
-37 -39 153 0
43 -44 154 0
-43 -44 -154 0
43 44 -154 0
-43 44 154 0
-45 -49 155 0
45 -49 -155 0
-45 49 -155 0
45 49 155 0
144 -145 156 0
-144 -145 -156 0
144 145 -156 0
-144 145 156 0
146 -147 157 0
-146 -147 -157 0
146 147 -157 0
-146 147 157 0
148 -149 158 0
-148 -149 -158 0
148 149 -158 0
-148 149 158 0
150 -151 159 0
-150 -151 -159 0
150 151 -159 0
-150 151 159 0
152 -153 160 0
-152 -153 -160 0
152 153 -160 0
-152 153 160 0
154 -155 161 0
-154 -155 -161 0
154 155 -161 0
-154 155 161 0
156 -157 162 0
-156 -157 -162 0
156 157 -162 0
-156 157 162 0
158 -159 163 0
-158 -159 -163 0
158 159 -163 0
-158 159 163 0
160 -161 164 0
-160 -161 -164 0
160 161 -164 0
-160 161 164 0
-162 -163 164 0
162 -163 -164 0
-162 163 -164 0
162 163 164 0
1 2 165 0
-1 2 -165 0
1 -2 -165 0
-1 -2 165 0
3 -8 166 0
-3 -8 -166 0
3 8 -166 0
-3 8 166 0
11 13 167 0
-11 13 -167 0
11 -13 -167 0
-11 -13 167 0
14 -19 168 0
-14 -19 -168 0
14 19 -168 0
-14 19 168 0
-22 24 169 0
22 24 -169 0
-22 -24 -169 0
22 -24 169 0
-25 26 170 0
25 26 -170 0
-25 -26 -170 0
25 -26 170 0
-28 -33 171 0
28 -33 -171 0
-28 33 -171 0
28 33 171 0
38 39 172 0
-38 39 -172 0
38 -39 -172 0
-38 -39 172 0
41 42 173 0
-41 42 -173 0
41 -42 -173 0
-41 -42 173 0
-45 -46 174 0
45 -46 -174 0
-45 46 -174 0
45 46 174 0
165 -166 175 0
-165 -166 -175 0
165 166 -175 0
-165 166 175 0
167 -168 176 0
-167 -168 -176 0
167 168 -176 0
-167 168 176 0
169 -170 177 0
-169 -170 -177 0
169 170 -177 0
-169 170 177 0
171 -172 178 0
-171 -172 -178 0
171 172 -178 0
-171 172 178 0
173 -174 179 0
-173 -174 -179 0
173 174 -179 0
-173 174 179 0
175 -176 180 0
-175 -176 -180 0
175 176 -180 0
-175 176 180 0
177 -178 181 0
-177 -178 -181 0
177 178 -181 0
-177 178 181 0
-179 -180 181 0
179 -180 -181 0
-179 180 -181 0
179 180 181 0
1 3 182 0
-1 3 -182 0
1 -3 -182 0
-1 -3 182 0
4 -6 183 0
-4 -6 -183 0
4 6 -183 0
-4 6 183 0
-7 -11 184 0
7 -11 -184 0
-7 11 -184 0
7 11 184 0
-14 -15 185 0
14 -15 -185 0
-14 15 -185 0
14 15 185 0
-21 -22 186 0
21 -22 -186 0
-21 22 -186 0
21 22 186 0
-24 26 187 0
24 26 -187 0
-24 -26 -187 0
24 -26 187 0
30 -31 188 0
-30 -31 -188 0
30 31 -188 0
-30 31 188 0
-35 37 189 0
35 37 -189 0
-35 -37 -189 0
35 -37 189 0
42 43 190 0
-42 43 -190 0
42 -43 -190 0
-42 -43 190 0
44 -45 191 0
-44 -45 -191 0
44 45 -191 0
-44 45 191 0
-47 -48 192 0
47 -48 -192 0
-47 48 -192 0
47 48 192 0
182 -183 193 0
-182 -183 -193 0
182 183 -193 0
-182 183 193 0
184 -185 194 0
-184 -185 -194 0
184 185 -194 0
-184 185 194 0
186 -187 195 0
-186 -187 -195 0
186 187 -195 0
-186 187 195 0
188 -189 196 0
-188 -189 -196 0
188 189 -196 0
-188 189 196 0
190 -191 197 0
-190 -191 -197 0
190 191 -197 0
-190 191 197 0
192 -193 198 0
-192 -193 -198 0
192 193 -198 0
-192 193 198 0
194 -195 199 0
-194 -195 -199 0
194 195 -199 0
-194 195 199 0
196 -197 200 0
-196 -197 -200 0
196 197 -200 0
-196 197 200 0
-198 -199 200 0
198 -199 -200 0
-198 199 -200 0
198 199 200 0
1 3 201 0
-1 3 -201 0
1 -3 -201 0
-1 -3 201 0
-4 6 202 0
4 6 -202 0
-4 -6 -202 0
4 -6 202 0
-7 -8 203 0
7 -8 -203 0
-7 8 -203 0
7 8 203 0
9 11 204 0
-9 11 -204 0
9 -11 -204 0
-9 -11 204 0
-13 14 205 0
13 14 -205 0
-13 -14 -205 0
13 -14 205 0
17 18 206 0
-17 18 -206 0
17 -18 -206 0
-17 -18 206 0
20 -21 207 0
-20 -21 -207 0
20 21 -207 0
-20 21 207 0
-22 -25 208 0
22 -25 -208 0
-22 25 -208 0
22 25 208 0
32 34 209 0
-32 34 -209 0
32 -34 -209 0
-32 -34 209 0
-36 37 210 0
36 37 -210 0
-36 -37 -210 0
36 -37 210 0
-38 -39 211 0
38 -39 -211 0
-38 39 -211 0
38 39 211 0
41 -42 212 0
-41 -42 -212 0
41 42 -212 0
-41 42 212 0
-45 -47 213 0
45 -47 -213 0
-45 47 -213 0
45 47 213 0
-48 49 214 0
48 49 -214 0
-48 -49 -214 0
48 -49 214 0
201 -202 215 0
-201 -202 -215 0
201 202 -215 0
-201 202 215 0
203 -204 216 0
-203 -204 -216 0
203 204 -216 0
-203 204 216 0
205 -206 217 0
-205 -206 -217 0
205 206 -217 0
-205 206 217 0
207 -208 218 0
-207 -208 -218 0
207 208 -218 0
-207 208 218 0
209 -210 219 0
-209 -210 -219 0
209 210 -219 0
-209 210 219 0
211 -212 220 0
-211 -212 -220 0
211 212 -220 0
-211 212 220 0
213 -214 221 0
-213 -214 -221 0
213 214 -221 0
-213 214 221 0
215 -216 222 0
-215 -216 -222 0
215 216 -222 0
-215 216 222 0
217 -218 223 0
-217 -218 -223 0
217 218 -223 0
-217 218 223 0
219 -220 224 0
-219 -220 -224 0
219 220 -224 0
-219 220 224 0
221 -222 225 0
-221 -222 -225 0
221 222 -225 0
-221 222 225 0
223 -224 226 0
-223 -224 -226 0
223 224 -226 0
-223 224 226 0
225 226 0
-225 -226 0
1 3 227 0
-1 3 -227 0
1 -3 -227 0
-1 -3 227 0
4 -6 228 0
-4 -6 -228 0
4 6 -228 0
-4 6 228 0
-8 10 229 0
8 10 -229 0
-8 -10 -229 0
8 -10 229 0
-14 -15 230 0
14 -15 -230 0
-14 15 -230 0
14 15 230 0
18 -19 231 0
-18 -19 -231 0
18 19 -231 0
-18 19 231 0
21 22 232 0
-21 22 -232 0
21 -22 -232 0
-21 -22 232 0
-23 27 233 0
23 27 -233 0
-23 -27 -233 0
23 -27 233 0
-28 -29 234 0
28 -29 -234 0
-28 29 -234 0
28 29 234 0
30 -32 235 0
-30 -32 -235 0
30 32 -235 0
-30 32 235 0
34 -35 236 0
-34 -35 -236 0
34 35 -236 0
-34 35 236 0
-36 -37 237 0
36 -37 -237 0
-36 37 -237 0
36 37 237 0
-42 -46 238 0
42 -46 -238 0
-42 46 -238 0
42 46 238 0
226 -227 239 0
-226 -227 -239 0
226 227 -239 0
-226 227 239 0
228 -229 240 0
-228 -229 -240 0
228 229 -240 0
-228 229 240 0
230 -231 241 0
-230 -231 -241 0
230 231 -241 0
-230 231 241 0
232 -233 242 0
-232 -233 -242 0
232 233 -242 0
-232 233 242 0
234 -235 243 0
-234 -235 -243 0
234 235 -243 0
-234 235 243 0
236 -237 244 0
-236 -237 -244 0
236 237 -244 0
-236 237 244 0
238 -239 245 0
-238 -239 -245 0
238 239 -245 0
-238 239 245 0
240 -241 246 0
-240 -241 -246 0
240 241 -246 0
-240 241 246 0
242 -243 247 0
-242 -243 -247 0
242 243 -247 0
-242 243 247 0
244 -245 248 0
-244 -245 -248 0
244 245 -248 0
-244 245 248 0
246 -247 249 0
-246 -247 -249 0
246 247 -249 0
-246 247 249 0
248 249 0
-248 -249 0
-3 -9 250 0
3 -9 -250 0
-3 9 -250 0
3 9 250 0
10 12 251 0
-10 12 -251 0
10 -12 -251 0
-10 -12 251 0
-18 19 252 0
18 19 -252 0
-18 -19 -252 0
18 -19 252 0
-22 28 253 0
22 28 -253 0
-22 -28 -253 0
22 -28 253 0
-31 33 254 0
31 33 -254 0
-31 -33 -254 0
31 -33 254 0
34 36 255 0
-34 36 -255 0
34 -36 -255 0
-34 -36 255 0
-39 41 256 0
39 41 -256 0
-39 -41 -256 0
39 -41 256 0
43 -44 257 0
-43 -44 -257 0
43 44 -257 0
-43 44 257 0
-46 47 258 0
46 47 -258 0
-46 -47 -258 0
46 -47 258 0
-49 -50 259 0
49 -50 -259 0
-49 50 -259 0
49 50 259 0
250 -251 260 0
-250 -251 -260 0
250 251 -260 0
-250 251 260 0
252 -253 261 0
-252 -253 -261 0
252 253 -261 0
-252 253 261 0
254 -255 262 0
-254 -255 -262 0
254 255 -262 0
-254 255 262 0
256 -257 263 0
-256 -257 -263 0
256 257 -263 0
-256 257 263 0
258 -259 264 0
-258 -259 -264 0
258 259 -264 0
-258 259 264 0
260 -261 265 0
-260 -261 -265 0
260 261 -265 0
-260 261 265 0
262 -263 266 0
-262 -263 -266 0
262 263 -266 0
-262 263 266 0
-264 -265 266 0
264 -265 -266 0
-264 265 -266 0
264 265 266 0
1 -5 267 0
-1 -5 -267 0
1 5 -267 0
-1 5 267 0
15 -21 268 0
-15 -21 -268 0
15 21 -268 0
-15 21 268 0
23 -26 269 0
-23 -26 -269 0
23 26 -269 0
-23 26 269 0
-27 31 270 0
27 31 -270 0
-27 -31 -270 0
27 -31 270 0
33 -36 271 0
-33 -36 -271 0
33 36 -271 0
-33 36 271 0
37 -39 272 0
-37 -39 -272 0
37 39 -272 0
-37 39 272 0
41 -42 273 0
-41 -42 -273 0
41 42 -273 0
-41 42 273 0
-43 44 274 0
43 44 -274 0
-43 -44 -274 0
43 -44 274 0
45 46 275 0
-45 46 -275 0
45 -46 -275 0
-45 -46 275 0
266 -267 276 0
-266 -267 -276 0
266 267 -276 0
-266 267 276 0
268 -269 277 0
-268 -269 -277 0
268 269 -277 0
-268 269 277 0
270 -271 278 0
-270 -271 -278 0
270 271 -278 0
-270 271 278 0
272 -273 279 0
-272 -273 -279 0
272 273 -279 0
-272 273 279 0
274 -275 280 0
-274 -275 -280 0
274 275 -280 0
-274 275 280 0
276 -277 281 0
-276 -277 -281 0
276 277 -281 0
-276 277 281 0
278 -279 282 0
-278 -279 -282 0
278 279 -282 0
-278 279 282 0
-280 -281 282 0
280 -281 -282 0
-280 281 -282 0
280 281 282 0
2 5 283 0
-2 5 -283 0
2 -5 -283 0
-2 -5 283 0
-6 -8 284 0
6 -8 -284 0
-6 8 -284 0
6 8 284 0
9 -10 285 0
-9 -10 -285 0
9 10 -285 0
-9 10 285 0
11 13 286 0
-11 13 -286 0
11 -13 -286 0
-11 -13 286 0
-17 18 287 0
17 18 -287 0
-17 -18 -287 0
17 -18 287 0
-20 25 288 0
20 25 -288 0
-20 -25 -288 0
20 -25 288 0
29 -30 289 0
-29 -30 -289 0
29 30 -289 0
-29 30 289 0
-32 -35 290 0
32 -35 -290 0
-32 35 -290 0
32 35 290 0
36 -37 291 0
-36 -37 -291 0
36 37 -291 0
-36 37 291 0
38 -39 292 0
-38 -39 -292 0
38 39 -292 0
-38 39 292 0
40 -41 293 0
-40 -41 -293 0
40 41 -293 0
-40 41 293 0
-42 43 294 0
42 43 -294 0
-42 -43 -294 0
42 -43 294 0
-44 47 295 0
44 47 -295 0
-44 -47 -295 0
44 -47 295 0
48 -50 296 0
-48 -50 -296 0
48 50 -296 0
-48 50 296 0
283 -284 297 0
-283 -284 -297 0
283 284 -297 0
-283 284 297 0
285 -286 298 0
-285 -286 -298 0
285 286 -298 0
-285 286 298 0
287 -288 299 0
-287 -288 -299 0
287 288 -299 0
-287 288 299 0
289 -290 300 0
-289 -290 -300 0
289 290 -300 0
-289 290 300 0
291 -292 301 0
-291 -292 -301 0
291 292 -301 0
-291 292 301 0
293 -294 302 0
-293 -294 -302 0
293 294 -302 0
-293 294 302 0
295 -296 303 0
-295 -296 -303 0
295 296 -303 0
-295 296 303 0
297 -298 304 0
-297 -298 -304 0
297 298 -304 0
-297 298 304 0
299 -300 305 0
-299 -300 -305 0
299 300 -305 0
-299 300 305 0
301 -302 306 0
-301 -302 -306 0
301 302 -306 0
-301 302 306 0
303 -304 307 0
-303 -304 -307 0
303 304 -307 0
-303 304 307 0
305 -306 308 0
-305 -306 -308 0
305 306 -308 0
-305 306 308 0
307 308 0
-307 -308 0
-1 3 309 0
1 3 -309 0
-1 -3 -309 0
1 -3 309 0
7 -8 310 0
-7 -8 -310 0
7 8 -310 0
-7 8 310 0
12 13 311 0
-12 13 -311 0
12 -13 -311 0
-12 -13 311 0
14 15 312 0
-14 15 -312 0
14 -15 -312 0
-14 -15 312 0
-20 23 313 0
20 23 -313 0
-20 -23 -313 0
20 -23 313 0
-24 -29 314 0
24 -29 -314 0
-24 29 -314 0
24 29 314 0
30 -31 315 0
-30 -31 -315 0
30 31 -315 0
-30 31 315 0
32 33 316 0
-32 33 -316 0
32 -33 -316 0
-32 -33 316 0
-43 44 317 0
43 44 -317 0
-43 -44 -317 0
43 -44 317 0
-46 47 318 0
46 47 -318 0
-46 -47 -318 0
46 -47 318 0
309 -310 319 0
-309 -310 -319 0
309 310 -319 0
-309 310 319 0
311 -312 320 0
-311 -312 -320 0
311 312 -320 0
-311 312 320 0
313 -314 321 0
-313 -314 -321 0
313 314 -321 0
-313 314 321 0
315 -316 322 0
-315 -316 -322 0
315 316 -322 0
-315 316 322 0
317 -318 323 0
-317 -318 -323 0
317 318 -323 0
-317 318 323 0
319 -320 324 0
-319 -320 -324 0
319 320 -324 0
-319 320 324 0
321 -322 325 0
-321 -322 -325 0
321 322 -325 0
-321 322 325 0
-323 -324 325 0
323 -324 -325 0
-323 324 -325 0
323 324 325 0
1 -2 326 0
-1 -2 -326 0
1 2 -326 0
-1 2 326 0
6 -12 327 0
-6 -12 -327 0
6 12 -327 0
-6 12 327 0
14 -17 328 0
-14 -17 -328 0
14 17 -328 0
-14 17 328 0
-20 28 329 0
20 28 -329 0
-20 -28 -329 0
20 -28 329 0
31 33 330 0
-31 33 -330 0
31 -33 -330 0
-31 -33 330 0
-35 36 331 0
35 36 -331 0
-35 -36 -331 0
35 -36 331 0
-38 -40 332 0
38 -40 -332 0
-38 40 -332 0
38 40 332 0
42 43 333 0
-42 43 -333 0
42 -43 -333 0
-42 -43 333 0
-45 46 334 0
45 46 -334 0
-45 -46 -334 0
45 -46 334 0
-47 50 335 0
47 50 -335 0
-47 -50 -335 0
47 -50 335 0
326 -327 336 0
-326 -327 -336 0
326 327 -336 0
-326 327 336 0
328 -329 337 0
-328 -329 -337 0
328 329 -337 0
-328 329 337 0
330 -331 338 0
-330 -331 -338 0
330 331 -338 0
-330 331 338 0
332 -333 339 0
-332 -333 -339 0
332 333 -339 0
-332 333 339 0
334 -335 340 0
-334 -335 -340 0
334 335 -340 0
-334 335 340 0
336 -337 341 0
-336 -337 -341 0
336 337 -341 0
-336 337 341 0
338 -339 342 0
-338 -339 -342 0
338 339 -342 0
-338 339 342 0
-340 -341 342 0
340 -341 -342 0
-340 341 -342 0
340 341 342 0
4 -7 343 0
-4 -7 -343 0
4 7 -343 0
-4 7 343 0
9 13 344 0
-9 13 -344 0
9 -13 -344 0
-9 -13 344 0
15 -16 345 0
-15 -16 -345 0
15 16 -345 0
-15 16 345 0
-17 19 346 0
17 19 -346 0
-17 -19 -346 0
17 -19 346 0
-20 29 347 0
20 29 -347 0
-20 -29 -347 0
20 -29 347 0
34 -36 348 0
-34 -36 -348 0
34 36 -348 0
-34 36 348 0
-37 -39 349 0
37 -39 -349 0
-37 39 -349 0
37 39 349 0
41 -42 350 0
-41 -42 -350 0
41 42 -350 0
-41 42 350 0
342 -343 351 0
-342 -343 -351 0
342 343 -351 0
-342 343 351 0
344 -345 352 0
-344 -345 -352 0
344 345 -352 0
-344 345 352 0
346 -347 353 0
-346 -347 -353 0
346 347 -353 0
-346 347 353 0
348 -349 354 0
-348 -349 -354 0
348 349 -354 0
-348 349 354 0
350 -351 355 0
-350 -351 -355 0
350 351 -355 0
-350 351 355 0
352 -353 356 0
-352 -353 -356 0
352 353 -356 0
-352 353 356 0
-354 -355 356 0
354 -355 -356 0
-354 355 -356 0
354 355 356 0
-3 -5 357 0
3 -5 -357 0
-3 5 -357 0
3 5 357 0
-7 -17 358 0
7 -17 -358 0
-7 17 -358 0
7 17 358 0
18 21 359 0
-18 21 -359 0
18 -21 -359 0
-18 -21 359 0
-22 -27 360 0
22 -27 -360 0
-22 27 -360 0
22 27 360 0
-29 30 361 0
29 30 -361 0
-29 -30 -361 0
29 -30 361 0
31 33 362 0
-31 33 -362 0
31 -33 -362 0
-31 -33 362 0
35 -38 363 0
-35 -38 -363 0
35 38 -363 0
-35 38 363 0
-39 -41 364 0
39 -41 -364 0
-39 41 -364 0
39 41 364 0
43 -46 365 0
-43 -46 -365 0
43 46 -365 0
-43 46 365 0
48 -49 366 0
-48 -49 -366 0
48 49 -366 0
-48 49 366 0
356 -357 367 0
-356 -357 -367 0
356 357 -367 0
-356 357 367 0
358 -359 368 0
-358 -359 -368 0
358 359 -368 0
-358 359 368 0
360 -361 369 0
-360 -361 -369 0
360 361 -369 0
-360 361 369 0
362 -363 370 0
-362 -363 -370 0
362 363 -370 0
-362 363 370 0
364 -365 371 0
-364 -365 -371 0
364 365 -371 0
-364 365 371 0
366 -367 372 0
-366 -367 -372 0
366 367 -372 0
-366 367 372 0
368 -369 373 0
-368 -369 -373 0
368 369 -373 0
-368 369 373 0
370 -371 374 0
-370 -371 -374 0
370 371 -374 0
-370 371 374 0
-372 -373 374 0
372 -373 -374 0
-372 373 -374 0
372 373 374 0
-2 4 375 0
2 4 -375 0
-2 -4 -375 0
2 -4 375 0
-10 11 376 0
10 11 -376 0
-10 -11 -376 0
10 -11 376 0
-13 16 377 0
13 16 -377 0
-13 -16 -377 0
13 -16 377 0
-17 21 378 0
17 21 -378 0
-17 -21 -378 0
17 -21 378 0
-22 24 379 0
22 24 -379 0
-22 -24 -379 0
22 -24 379 0
-25 27 380 0
25 27 -380 0
-25 -27 -380 0
25 -27 380 0
33 34 381 0
-33 34 -381 0
33 -34 -381 0
-33 -34 381 0
35 -37 382 0
-35 -37 -382 0
35 37 -382 0
-35 37 382 0
38 40 383 0
-38 40 -383 0
38 -40 -383 0
-38 -40 383 0
44 47 384 0
-44 47 -384 0
44 -47 -384 0
-44 -47 384 0
374 -375 385 0
-374 -375 -385 0
374 375 -385 0
-374 375 385 0
376 -377 386 0
-376 -377 -386 0
376 377 -386 0
-376 377 386 0
378 -379 387 0
-378 -379 -387 0
378 379 -387 0
-378 379 387 0
380 -381 388 0
-380 -381 -388 0
380 381 -388 0
-380 381 388 0
382 -383 389 0
-382 -383 -389 0
382 383 -389 0
-382 383 389 0
384 -385 390 0
-384 -385 -390 0
384 385 -390 0
-384 385 390 0
386 -387 391 0
-386 -387 -391 0
386 387 -391 0
-386 387 391 0
388 -389 392 0
-388 -389 -392 0
388 389 -392 0
-388 389 392 0
-390 -391 392 0
390 -391 -392 0
-390 391 -392 0
390 391 392 0
-8 -10 393 0
8 -10 -393 0
-8 10 -393 0
8 10 393 0
11 -12 394 0
-11 -12 -394 0
11 12 -394 0
-11 12 394 0
13 15 395 0
-13 15 -395 0
13 -15 -395 0
-13 -15 395 0
-17 -20 396 0
17 -20 -396 0
-17 20 -396 0
17 20 396 0
-29 -31 397 0
29 -31 -397 0
-29 31 -397 0
29 31 397 0
-32 -35 398 0
32 -35 -398 0
-32 35 -398 0
32 35 398 0
38 41 399 0
-38 41 -399 0
38 -41 -399 0
-38 -41 399 0
44 45 400 0
-44 45 -400 0
44 -45 -400 0
-44 -45 400 0
-46 49 401 0
46 49 -401 0
-46 -49 -401 0
46 -49 401 0
392 -393 402 0
-392 -393 -402 0
392 393 -402 0
-392 393 402 0
394 -395 403 0
-394 -395 -403 0
394 395 -403 0
-394 395 403 0
396 -397 404 0
-396 -397 -404 0
396 397 -404 0
-396 397 404 0
398 -399 405 0
-398 -399 -405 0
398 399 -405 0
-398 399 405 0
400 -401 406 0
-400 -401 -406 0
400 401 -406 0
-400 401 406 0
402 -403 407 0
-402 -403 -407 0
402 403 -407 0
-402 403 407 0
404 -405 408 0
-404 -405 -408 0
404 405 -408 0
-404 405 408 0
-406 -407 408 0
406 -407 -408 0
-406 407 -408 0
406 407 408 0
-1 -3 409 0
1 -3 -409 0
-1 3 -409 0
1 3 409 0
4 5 410 0
-4 5 -410 0
4 -5 -410 0
-4 -5 410 0
-6 7 411 0
6 7 -411 0
-6 -7 -411 0
6 -7 411 0
11 -13 412 0
-11 -13 -412 0
11 13 -412 0
-11 13 412 0
15 -16 413 0
-15 -16 -413 0
15 16 -413 0
-15 16 413 0
-18 19 414 0
18 19 -414 0
-18 -19 -414 0
18 -19 414 0
21 -22 415 0
-21 -22 -415 0
21 22 -415 0
-21 22 415 0
-25 -26 416 0
25 -26 -416 0
-25 26 -416 0
25 26 416 0
-27 28 417 0
27 28 -417 0
-27 -28 -417 0
27 -28 417 0
-30 -32 418 0
30 -32 -418 0
-30 32 -418 0
30 32 418 0
33 -36 419 0
-33 -36 -419 0
33 36 -419 0
-33 36 419 0
37 42 420 0
-37 42 -420 0
37 -42 -420 0
-37 -42 420 0
-45 48 421 0
45 48 -421 0
-45 -48 -421 0
45 -48 421 0
409 -410 422 0
-409 -410 -422 0
409 410 -422 0
-409 410 422 0
411 -412 423 0
-411 -412 -423 0
411 412 -423 0
-411 412 423 0
413 -414 424 0
-413 -414 -424 0
413 414 -424 0
-413 414 424 0
415 -416 425 0
-415 -416 -425 0
415 416 -425 0
-415 416 425 0
417 -418 426 0
-417 -418 -426 0
417 418 -426 0
-417 418 426 0
419 -420 427 0
-419 -420 -427 0
419 420 -427 0
-419 420 427 0
421 -422 428 0
-421 -422 -428 0
421 422 -428 0
-421 422 428 0
423 -424 429 0
-423 -424 -429 0
423 424 -429 0
-423 424 429 0
425 -426 430 0
-425 -426 -430 0
425 426 -430 0
-425 426 430 0
427 -428 431 0
-427 -428 -431 0
427 428 -431 0
-427 428 431 0
429 -430 432 0
-429 -430 -432 0
429 430 -432 0
-429 430 432 0
431 432 0
-431 -432 0
-2 3 433 0
2 3 -433 0
-2 -3 -433 0
2 -3 433 0
-5 10 434 0
5 10 -434 0
-5 -10 -434 0
5 -10 434 0
15 18 435 0
-15 18 -435 0
15 -18 -435 0
-15 -18 435 0
19 -21 436 0
-19 -21 -436 0
19 21 -436 0
-19 21 436 0
23 -24 437 0
-23 -24 -437 0
23 24 -437 0
-23 24 437 0
-25 -26 438 0
25 -26 -438 0
-25 26 -438 0
25 26 438 0
27 -28 439 0
-27 -28 -439 0
27 28 -439 0
-27 28 439 0
-29 31 440 0
29 31 -440 0
-29 -31 -440 0
29 -31 440 0
-32 -33 441 0
32 -33 -441 0
-32 33 -441 0
32 33 441 0
-34 -39 442 0
34 -39 -442 0
-34 39 -442 0
34 39 442 0
-40 -41 443 0
40 -41 -443 0
-40 41 -443 0
40 41 443 0
-42 44 444 0
42 44 -444 0
-42 -44 -444 0
42 -44 444 0
45 -46 445 0
-45 -46 -445 0
45 46 -445 0
-45 46 445 0
432 -433 446 0
-432 -433 -446 0
432 433 -446 0
-432 433 446 0
434 -435 447 0
-434 -435 -447 0
434 435 -447 0
-434 435 447 0
436 -437 448 0
-436 -437 -448 0
436 437 -448 0
-436 437 448 0
438 -439 449 0
-438 -439 -449 0
438 439 -449 0
-438 439 449 0
440 -441 450 0
-440 -441 -450 0
440 441 -450 0
-440 441 450 0
442 -443 451 0
-442 -443 -451 0
442 443 -451 0
-442 443 451 0
444 -445 452 0
-444 -445 -452 0
444 445 -452 0
-444 445 452 0
446 -447 453 0
-446 -447 -453 0
446 447 -453 0
-446 447 453 0
448 -449 454 0
-448 -449 -454 0
448 449 -454 0
-448 449 454 0
450 -451 455 0
-450 -451 -455 0
450 451 -455 0
-450 451 455 0
452 -453 456 0
-452 -453 -456 0
452 453 -456 0
-452 453 456 0
454 -455 457 0
-454 -455 -457 0
454 455 -457 0
-454 455 457 0
456 457 0
-456 -457 0
-12 458 0
-24 458 0
-12 -24 459 0
-23 458 0
-12 -23 459 0
-24 -23 459 0
-12 -24 -23 460 0
-22 461 0
-21 461 0
-22 -21 462 0
-20 461 0
-22 -20 462 0
-21 -20 462 0
-22 -21 -20 463 0
-458 464 0
-459 465 0
-460 466 0
-461 464 0
-462 465 0
-463 466 0
-458 -461 465 0
-458 -462 466 0
-458 -463 467 0
-459 -461 466 0
-459 -462 467 0
-459 -463 468 0
-460 -461 467 0
-460 -462 468 0
-460 -463 469 0
-19 470 0
-18 470 0
-19 -18 471 0
-17 470 0
-19 -17 471 0
-18 -17 471 0
-19 -18 -17 472 0
-16 473 0
-15 473 0
-16 -15 474 0
-14 473 0
-16 -14 474 0
-15 -14 474 0
-16 -15 -14 475 0
-470 476 0
-471 477 0
-472 478 0
-473 476 0
-474 477 0
-475 478 0
-470 -473 477 0
-470 -474 478 0
-470 -475 479 0
-471 -473 478 0
-471 -474 479 0
-471 -475 480 0
-472 -473 479 0
-472 -474 480 0
-472 -475 481 0
-464 482 0
-466 483 0
-468 484 0
-476 482 0
-478 483 0
-480 484 0
-464 -476 483 0
-464 -478 484 0
-464 -480 485 0
-466 -476 484 0
-466 -478 485 0
-466 -480 486 0
-468 -476 485 0
-468 -478 486 0
-468 -480 487 0
-465 488 0
-467 489 0
-469 490 0
-477 488 0
-479 489 0
-481 490 0
-465 -477 489 0
-465 -479 490 0
-465 -481 491 0
-467 -477 490 0
-467 -479 491 0
-467 -481 492 0
-469 -477 491 0
-469 -479 492 0
-469 -481 493 0
-483 494 0
-488 494 0
-483 -488 495 0
-484 496 0
-489 496 0
-484 -489 497 0
-485 498 0
-490 498 0
-485 -490 499 0
-486 500 0
-491 500 0
-486 -491 501 0
-487 502 0
-492 502 0
-487 -492 503 0
-13 504 0
-25 504 0
-13 -25 505 0
-11 504 0
-13 -11 505 0
-25 -11 505 0
-13 -25 -11 506 0
-10 507 0
-9 507 0
-10 -9 508 0
-8 507 0
-10 -8 508 0
-9 -8 508 0
-10 -9 -8 509 0
-504 510 0
-505 511 0
-506 512 0
-507 510 0
-508 511 0
-509 512 0
-504 -507 511 0
-504 -508 512 0
-504 -509 513 0
-505 -507 512 0
-505 -508 513 0
-505 -509 514 0
-506 -507 513 0
-506 -508 514 0
-506 -509 515 0
-7 516 0
-6 516 0
-7 -6 517 0
-5 516 0
-7 -5 517 0
-6 -5 517 0
-7 -6 -5 518 0
-4 519 0
-3 519 0
-4 -3 520 0
-2 519 0
-4 -2 520 0
-3 -2 520 0
-4 -3 -2 521 0
-516 522 0
-517 523 0
-518 524 0
-519 522 0
-520 523 0
-521 524 0
-516 -519 523 0
-516 -520 524 0
-516 -521 525 0
-517 -519 524 0
-517 -520 525 0
-517 -521 526 0
-518 -519 525 0
-518 -520 526 0
-518 -521 527 0
-510 528 0
-512 529 0
-514 530 0
-522 528 0
-524 529 0
-526 530 0
-510 -522 529 0
-510 -524 530 0
-510 -526 531 0
-512 -522 530 0
-512 -524 531 0
-512 -526 532 0
-514 -522 531 0
-514 -524 532 0
-514 -526 533 0
-511 534 0
-513 535 0
-515 536 0
-523 534 0
-525 535 0
-527 536 0
-511 -523 535 0
-511 -525 536 0
-511 -527 537 0
-513 -523 536 0
-513 -525 537 0
-513 -527 538 0
-515 -523 537 0
-515 -525 538 0
-515 -527 539 0
-529 540 0
-534 540 0
-529 -534 541 0
-530 542 0
-535 542 0
-530 -535 543 0
-531 544 0
-536 544 0
-531 -536 545 0
-532 546 0
-537 546 0
-532 -537 547 0
-533 548 0
-538 548 0
-533 -538 549 0
-1 550 0
-37 550 0
-1 -37 551 0
-49 550 0
-1 -49 551 0
-37 -49 551 0
-1 -37 -49 552 0
-48 553 0
-47 553 0
-48 -47 554 0
-46 553 0
-48 -46 554 0
-47 -46 554 0
-48 -47 -46 555 0
-550 556 0
-551 557 0
-552 558 0
-553 556 0
-554 557 0
-555 558 0
-550 -553 557 0
-550 -554 558 0
-550 -555 559 0
-551 -553 558 0
-551 -554 559 0
-551 -555 560 0
-552 -553 559 0
-552 -554 560 0
-552 -555 561 0
-45 562 0
-44 562 0
-45 -44 563 0
-43 562 0
-45 -43 563 0
-44 -43 563 0
-45 -44 -43 564 0
-42 565 0
-41 565 0
-42 -41 566 0
-40 565 0
-42 -40 566 0
-41 -40 566 0
-42 -41 -40 567 0
-562 568 0
-563 569 0
-564 570 0
-565 568 0
-566 569 0
-567 570 0
-562 -565 569 0
-562 -566 570 0
-562 -567 571 0
-563 -565 570 0
-563 -566 571 0
-563 -567 572 0
-564 -565 571 0
-564 -566 572 0
-564 -567 573 0
-556 574 0
-558 575 0
-560 576 0
-568 574 0
-570 575 0
-572 576 0
-556 -568 575 0
-556 -570 576 0
-556 -572 577 0
-558 -568 576 0
-558 -570 577 0
-558 -572 578 0
-560 -568 577 0
-560 -570 578 0
-560 -572 579 0
-557 580 0
-559 581 0
-561 582 0
-569 580 0
-571 581 0
-573 582 0
-557 -569 581 0
-557 -571 582 0
-557 -573 583 0
-559 -569 582 0
-559 -571 583 0
-559 -573 584 0
-561 -569 583 0
-561 -571 584 0
-561 -573 585 0
-575 586 0
-580 586 0
-575 -580 587 0
-576 588 0
-581 588 0
-576 -581 589 0
-577 590 0
-582 590 0
-577 -582 591 0
-578 592 0
-583 592 0
-578 -583 593 0
-579 594 0
-584 594 0
-579 -584 595 0
-39 596 0
-38 596 0
-39 -38 597 0
-50 596 0
-39 -50 597 0
-38 -50 597 0
-39 -38 -50 598 0
-36 599 0
-35 599 0
-36 -35 600 0
-34 599 0
-36 -34 600 0
-35 -34 600 0
-36 -35 -34 601 0
-596 602 0
-597 603 0
-598 604 0
-599 602 0
-600 603 0
-601 604 0
-596 -599 603 0
-596 -600 604 0
-596 -601 605 0
-597 -599 604 0
-597 -600 605 0
-597 -601 606 0
-598 -599 605 0
-598 -600 606 0
-598 -601 607 0
-33 608 0
-32 608 0
-33 -32 609 0
-31 608 0
-33 -31 609 0
-32 -31 609 0
-33 -32 -31 610 0
-30 611 0
-29 611 0
-30 -29 612 0
-28 613 0
-27 613 0
-28 -27 614 0
-26 613 0
-28 -26 614 0
-27 -26 614 0
-28 -27 -26 615 0
-611 616 0
-612 617 0
-613 616 0
-614 617 0
-615 618 0
-611 -613 617 0
-611 -614 618 0
-611 -615 619 0
-612 -613 618 0
-612 -614 619 0
-612 -615 620 0
-608 621 0
-609 622 0
-610 623 0
-616 621 0
-617 622 0
-618 623 0
-619 624 0
-620 625 0
-608 -616 622 0
-608 -617 623 0
-608 -618 624 0
-608 -619 625 0
-608 -620 626 0
-609 -616 623 0
-609 -617 624 0
-609 -618 625 0
-609 -619 626 0
-609 -620 627 0
-610 -616 624 0
-610 -617 625 0
-610 -618 626 0
-610 -619 627 0
-610 -620 628 0
-602 629 0
-604 630 0
-606 631 0
-621 629 0
-623 630 0
-625 631 0
-627 632 0
-602 -621 630 0
-602 -623 631 0
-602 -625 632 0
-602 -627 633 0
-604 -621 631 0
-604 -623 632 0
-604 -625 633 0
-604 -627 634 0
-606 -621 632 0
-606 -623 633 0
-606 -625 634 0
-606 -627 635 0
-603 636 0
-605 637 0
-607 638 0
-622 636 0
-624 637 0
-626 638 0
-628 639 0
-603 -622 637 0
-603 -624 638 0
-603 -626 639 0
-603 -628 640 0
-605 -622 638 0
-605 -624 639 0
-605 -626 640 0
-605 -628 641 0
-607 -622 639 0
-607 -624 640 0
-607 -626 641 0
-607 -628 642 0
-630 643 0
-636 643 0
-630 -636 644 0
-631 645 0
-637 645 0
-631 -637 646 0
-632 647 0
-638 647 0
-632 -638 648 0
-633 649 0
-639 649 0
-633 -639 650 0
-634 651 0
-640 651 0
-634 -640 652 0
-635 653 0
-641 653 0
-635 -641 654 0
-574 655 0
-589 656 0
-593 657 0
-629 655 0
-646 656 0
-650 657 0
-654 658 0
-574 -629 656 0
-574 -646 657 0
-574 -650 658 0
-574 -654 659 0
-589 -629 657 0
-589 -646 658 0
-589 -650 659 0
-589 -654 660 0
-593 -629 658 0
-593 -646 659 0
-593 -650 660 0
-587 661 0
-591 662 0
-595 663 0
-644 661 0
-648 662 0
-652 663 0
-587 -644 662 0
-587 -648 663 0
-587 -652 664 0
-591 -644 663 0
-591 -648 664 0
-591 -652 665 0
-595 -644 664 0
-595 -648 665 0
-656 666 0
-661 666 0
-656 -661 667 0
-657 668 0
-662 668 0
-657 -662 669 0
-658 670 0
-663 670 0
-658 -663 671 0
-659 672 0
-664 672 0
-659 -664 673 0
-660 674 0
-665 674 0
-660 -665 675 0
-586 676 0
-590 677 0
-594 678 0
-643 676 0
-647 677 0
-651 678 0
-642 679 0
-586 -643 677 0
-586 -647 678 0
-586 -651 679 0
-586 -642 680 0
-590 -643 678 0
-590 -647 679 0
-590 -651 680 0
-590 -642 681 0
-594 -643 679 0
-594 -647 680 0
-594 -651 681 0
-588 682 0
-592 683 0
-585 684 0
-645 682 0
-649 683 0
-653 684 0
-588 -645 683 0
-588 -649 684 0
-588 -653 685 0
-592 -645 684 0
-592 -649 685 0
-592 -653 686 0
-585 -645 685 0
-585 -649 686 0
-677 687 0
-682 687 0
-677 -682 688 0
-678 689 0
-683 689 0
-678 -683 690 0
-679 691 0
-684 691 0
-679 -684 692 0
-680 693 0
-685 693 0
-680 -685 694 0
-681 695 0
-686 695 0
-666 696 0
-676 696 0
-666 -676 697 0
-667 698 0
-687 698 0
-667 -687 699 0
-668 700 0
-688 700 0
-668 -688 701 0
-669 702 0
-689 702 0
-669 -689 703 0
-670 704 0
-690 704 0
-670 -690 705 0
-671 706 0
-691 706 0
-671 -691 707 0
-672 708 0
-692 708 0
-672 -692 709 0
-673 710 0
-693 710 0
-673 -693 711 0
-674 712 0
-694 712 0
-674 -694 713 0
-675 714 0
-695 714 0
-675 -695 715 0
-528 716 0
-543 717 0
-547 718 0
-655 716 0
-699 717 0
-703 718 0
-707 719 0
-711 720 0
-715 721 0
-528 -655 717 0
-528 -699 718 0
-528 -703 719 0
-528 -707 720 0
-528 -711 721 0
-543 -655 718 0
-543 -699 719 0
-543 -703 720 0
-543 -707 721 0
-547 -655 719 0
-547 -699 720 0
-547 -703 721 0
-541 722 0
-545 723 0
-549 724 0
-697 722 0
-701 723 0
-705 724 0
-709 725 0
-713 726 0
-541 -697 723 0
-541 -701 724 0
-541 -705 725 0
-541 -709 726 0
-545 -697 724 0
-545 -701 725 0
-545 -705 726 0
-549 -697 725 0
-549 -701 726 0
-717 727 0
-722 727 0
-717 -722 728 0
-718 729 0
-723 729 0
-718 -723 730 0
-719 731 0
-724 731 0
-719 -724 732 0
-720 733 0
-725 733 0
-720 -725 734 0
-721 735 0
-726 735 0
-721 -726 736 0
-540 737 0
-544 738 0
-548 739 0
-696 737 0
-700 738 0
-704 739 0
-708 740 0
-712 741 0
-540 -696 738 0
-540 -700 739 0
-540 -704 740 0
-540 -708 741 0
-540 -712 742 0
-544 -696 739 0
-544 -700 740 0
-544 -704 741 0
-544 -708 742 0
-548 -696 740 0
-548 -700 741 0
-548 -704 742 0
-542 743 0
-546 744 0
-539 745 0
-698 743 0
-702 744 0
-706 745 0
-710 746 0
-714 747 0
-542 -698 744 0
-542 -702 745 0
-542 -706 746 0
-542 -710 747 0
-546 -698 745 0
-546 -702 746 0
-546 -706 747 0
-539 -698 746 0
-539 -702 747 0
-738 748 0
-743 748 0
-738 -743 749 0
-739 750 0
-744 750 0
-739 -744 751 0
-740 752 0
-745 752 0
-740 -745 753 0
-741 754 0
-746 754 0
-741 -746 755 0
-742 756 0
-747 756 0
-727 757 0
-737 757 0
-727 -737 758 0
-728 759 0
-748 759 0
-728 -748 760 0
-729 761 0
-749 761 0
-729 -749 762 0
-730 763 0
-750 763 0
-730 -750 764 0
-731 765 0
-751 765 0
-731 -751 766 0
-732 767 0
-752 767 0
-732 -752 768 0
-733 769 0
-753 769 0
-733 -753 770 0
-734 771 0
-754 771 0
-734 -754 772 0
-735 773 0
-755 773 0
-735 -755 774 0
-736 775 0
-756 775 0
-736 -756 776 0
-482 777 0
-497 778 0
-501 779 0
-716 777 0
-760 778 0
-764 779 0
-768 780 0
-772 781 0
-776 782 0
-482 -716 778 0
-482 -760 779 0
-482 -764 780 0
-482 -768 781 0
-482 -772 782 0
-497 -716 779 0
-497 -760 780 0
-497 -764 781 0
-497 -768 782 0
-501 -716 780 0
-501 -760 781 0
-501 -764 782 0
-495 783 0
-499 784 0
-503 785 0
-758 783 0
-762 784 0
-766 785 0
-770 786 0
-774 787 0
-495 -758 784 0
-495 -762 785 0
-495 -766 786 0
-495 -770 787 0
-499 -758 785 0
-499 -762 786 0
-499 -766 787 0
-503 -758 786 0
-503 -762 787 0
-778 788 0
-783 788 0
-778 -783 789 0
-779 790 0
-784 790 0
-779 -784 791 0
-780 792 0
-785 792 0
-780 -785 793 0
-781 794 0
-786 794 0
-781 -786 795 0
-782 796 0
-787 796 0
-782 -787 797 0
-494 798 0
-498 799 0
-502 800 0
-757 798 0
-761 799 0
-765 800 0
-769 801 0
-773 802 0
-494 -757 799 0
-494 -761 800 0
-494 -765 801 0
-494 -769 802 0
-494 -773 803 0
-498 -757 800 0
-498 -761 801 0
-498 -765 802 0
-498 -769 803 0
-502 -757 801 0
-502 -761 802 0
-502 -765 803 0
-496 804 0
-500 805 0
-493 806 0
-759 804 0
-763 805 0
-767 806 0
-771 807 0
-775 808 0
-496 -759 805 0
-496 -763 806 0
-496 -767 807 0
-496 -771 808 0
-500 -759 806 0
-500 -763 807 0
-500 -767 808 0
-493 -759 807 0
-493 -763 808 0
-799 809 0
-804 809 0
-799 -804 810 0
-800 811 0
-805 811 0
-800 -805 812 0
-801 813 0
-806 813 0
-801 -806 814 0
-802 815 0
-807 815 0
-802 -807 816 0
-803 817 0
-808 817 0
-788 818 0
-798 818 0
-788 -798 819 0
-789 820 0
-809 820 0
-789 -809 821 0
-790 822 0
-810 822 0
-790 -810 823 0
-791 824 0
-811 824 0
-791 -811 825 0
-792 826 0
-812 826 0
-792 -812 827 0
-793 828 0
-813 828 0
-793 -813 829 0
-794 830 0
-814 830 0
-794 -814 831 0
-795 832 0
-815 832 0
-795 -815 833 0
-796 834 0
-816 834 0
-796 -816 835 0
-797 836 0
-817 836 0
-797 -817 837 0
-837 0
